
Gurobi 6.0.4 (linux64) logging started Fri Apr 29 19:21:00 2016


Gurobi 6.0.4 (linux64) logging started Mon May  2 22:59:06 2016


Gurobi 6.0.4 (linux64) logging started Mon May  2 23:05:51 2016


Gurobi 6.0.4 (linux64) logging started Mon May  2 23:06:40 2016


Gurobi 6.0.4 (linux64) logging started Mon May  2 23:08:06 2016


Gurobi 6.0.4 (linux64) logging started Mon May  2 23:11:24 2016


Gurobi 6.0.4 (linux64) logging started Mon May  2 23:12:43 2016


Gurobi 6.0.4 (linux64) logging started Mon May  2 23:13:39 2016


Gurobi 6.0.4 (linux64) logging started Mon May  2 23:51:24 2016


Gurobi 6.0.4 (linux64) logging started Tue May  3 00:03:47 2016


Gurobi 6.0.4 (linux64) logging started Tue May  3 00:21:13 2016


Gurobi 6.0.4 (linux64) logging started Tue May  3 00:50:13 2016


Gurobi 6.0.4 (linux64) logging started Tue May  3 14:25:53 2016


Gurobi 6.0.4 (linux64) logging started Tue May  3 14:27:44 2016


Gurobi 6.0.4 (linux64) logging started Tue May  3 14:27:57 2016


Gurobi 6.0.4 (linux64) logging started Tue May  3 17:58:30 2016


Gurobi 6.0.4 (linux64) logging started Tue May  3 18:39:19 2016


Gurobi 6.0.4 (linux64) logging started Tue May  3 18:39:42 2016


Gurobi 6.0.4 (linux64) logging started Tue May  3 18:42:15 2016


Gurobi 6.0.4 (linux64) logging started Tue May  3 18:42:26 2016


Gurobi 6.0.4 (linux64) logging started Tue May  3 18:45:12 2016


Gurobi 6.0.4 (linux64) logging started Tue May  3 18:46:27 2016


Gurobi 6.0.4 (linux64) logging started Tue May  3 19:01:36 2016


Gurobi 6.0.4 (linux64) logging started Tue May  3 19:08:13 2016


Gurobi 6.0.4 (linux64) logging started Tue May  3 19:12:26 2016


Gurobi 6.0.4 (linux64) logging started Tue May  3 19:13:24 2016

